100 100 100
50
90 100 94
85 92 19
25 3 8
79 83 92
96 56 80
48 38 36
64 73 95
83 62 82
97 31 82
50 69 57
85 65 50
67 58 66
89 74 89
71 95 59
53 52 74
6 3 43
25 100 80
90 70 22
92 52 66
8 20 23
98 60 85
47 45 14
59 70 70
65 70 70
67 85 53
87 35 79
98 84 67
90 33 99
88 6 89
95 92 50
74 95 93
94 53 63
72 92 51
88 77 82
71 98 83
87 95 54
4 8 3
78 93 43
97 20 83
61 91 75
92 92 35
57 95 96
80 84 44
67 87 61
66 73 46
67 8 78
74 21 71
78 52 57
98 61 52
6 13 4
